35
100
79	2
78	1
77	1
75	2
74	2
71	1
69	1
68	2
67	1
64	1
63	1
62	3
60	1
59	3
58	1
57	1
56	3
53	1
52	1
48	2
46	1
43	2
41	1
40	1
39	1
38	1
37	1
35	1
34	2
33	1
30	1
29	2
27	1
22	2
20	1
